LAMMPS (29 Sep 2021 - Update 2)
OMP_NUM_THREADS environment is not set. Defaulting to 1 thread. (src/comm.cpp:98)
  using 1 OpenMP thread(s) per MPI task
units      real
dimension  3
boundary   p p p
atom_style full
read_data water1000.data
Reading data file ...
  orthogonal box = (-0.68450200 -0.33010300 -0.58167000) to (69.315498 69.669897 69.418330)
  2 by 2 by 4 MPI processor grid
  reading atoms ...
  3000 atoms
  scanning bonds ...
  2 = max bonds/atom
  scanning angles ...
  1 = max angles/atom
  reading bonds ...
  2000 bonds
  reading angles ...
  1000 angles
Finding 1-2 1-3 1-4 neighbors ...
  special bond factors lj:    0        0        0       
  special bond factors coul:  0        0        0       
     2 = max # of 1-2 neighbors
     1 = max # of 1-3 neighbors
     1 = max # of 1-4 neighbors
     2 = max # of special neighbors
  special bonds CPU = 0.066 seconds
  read_data CPU = 0.105 seconds

## alternate way to set charges - besides manually in data file ###
group ox type 2
1000 atoms in group ox
group hy type 1
2000 atoms in group hy
set group ox charge -0.8200
Setting atom values ...
  1000 settings made for charge
set group hy charge 0.4100
Setting atom values ...
  2000 settings made for charge

pair_style lj/cut/coul/long 5.9086
pair_coeff * * 0.0 0.0
pair_coeff 2 2 0.1553537 3.166
bond_style  harmonic
bond_coeff  1 529.581 1.0120
angle_style harmonic
angle_coeff 1 37.95 113.24
kspace_style ewald 1.0e-5

velocity all create 298.0 12345689 dist uniform
fix 2 all nvt temp 298.0 298.0 100.0


neighbor 2.0 bin
neigh_modify delay 0 every 10 check yes
thermo      200
thermo_style custom step time temp
thermo_modify norm no flush yes

minimize 1.0e-8 1.0e-8 10000 10000
WARNING: Using 'neigh_modify every 1 delay 0 check yes' setting during minimization (src/min.cpp:188)
Ewald initialization ...
  using 12-bit tables for long-range coulomb (src/kspace.cpp:340)
  G vector (1/distance) = 0.47443706
  estimated absolute RMS force accuracy = 0.0042891194
  estimated relative force accuracy = 1.2916556e-05
  KSpace vectors: actual max1d max3d = 56540 30 113490
                  kxmax kymax kzmax  = 30 30 30
Neighbor list info ...
  update every 1 steps, delay 0 steps, check yes
  max neighbors/atom: 2000, page size: 100000
  master list distance cutoff = 7.9086
  ghost atom cutoff = 7.9086
  binsize = 3.9543, bins = 18 18 18
  1 neighbor lists, perpetual/occasional/extra = 1 0 0
  (1) pair lj/cut/coul/long, perpetual
      attributes: half, newton on
      pair build: half/bin/newton
      stencil: half/bin/3d
      bin: standard
Per MPI rank memory allocation (min/avg/max) = 67.27 | 67.28 | 67.28 Mbytes
Step Time Temp 
       0            0          298 
     200          200          298 
     400          400          298 
     600          600          298 
     800          800          298 
    1000         1000          298 
    1200         1200          298 
    1400         1400          298 
    1600         1600          298 
    1800         1800          298 
    2000         2000          298 
    2200         2200          298 
    2400         2400          298 
    2600         2600          298 
    2800         2800          298 
    3000         3000          298 
    3200         3200          298 
    3400         3400          298 
    3600         3600          298 
    3800         3800          298 
    4000         4000          298 
    4200         4200          298 
    4400         4400          298 
    4600         4600          298 
    4800         4800          298 
    5000         5000          298 
    5084         5084          298 
Loop time of 1393.7 on 16 procs for 5084 steps with 3000 atoms

78.2% CPU use with 16 MPI tasks x 1 OpenMP threads

Minimization stats:
  Stopping criterion = max force evaluations
  Energy initial, next-to-last, final = 
      708.330322839814  -9649.72827666854  -9649.77635349473
  Force two-norm initial, final = 1090.9309 6.3490334
  Force max component initial, final = 219.30456 1.6278159
  Final line search alpha, max atom move = 0.0056055963 0.0091248789
  Iterations, force evaluations = 5084 10000

MPI task timing breakdown:
Section |  min time  |  avg time  |  max time  |%varavg| %total
---------------------------------------------------------------
Pair    | 0.50843    | 1.0808     | 1.6167     |  29.7 |  0.08
Bond    | 0.06083    | 0.095323   | 0.12612    |   7.0 |  0.01
Kspace  | 589.21     | 977.75     | 1353.3     | 892.3 | 70.15
Neigh   | 0.043255   | 0.066033   | 0.07964    |   5.5 |  0.00
Comm    | 20.238     | 403.88     | 796.62     |1388.9 | 28.98
Output  | 0.0044848  | 0.0047322  | 0.0054401  |   0.3 |  0.00
Modify  | 0          | 0          | 0          |   0.0 |  0.00
Other   |            | 10.83      |            |       |  0.78

Nlocal:        187.500 ave         253 max         129 min
Histogram: 1 0 4 3 1 2 2 1 0 2
Nghost:        554.188 ave         670 max         367 min
Histogram: 1 0 0 0 2 6 3 0 3 1
Neighs:        3827.69 ave        6474 max        2238 min
Histogram: 2 4 2 3 1 1 0 0 1 2

Total # of neighbors = 61243
Ave neighs/atom = 20.414333
Ave special neighs/atom = 2.0000000
Neighbor list builds = 135
Dangerous builds = 0

dump 1 all dcd 2000 result.dcd
dump_modify 1 unwrap yes
#run variables
timestep 0.5
run 2000 # 100ps, longer needed ( 2000000 10ns )
Ewald initialization ...
  using 12-bit tables for long-range coulomb (src/kspace.cpp:340)
  G vector (1/distance) = 0.47443706
  estimated absolute RMS force accuracy = 0.0042891194
  estimated relative force accuracy = 1.2916556e-05
  KSpace vectors: actual max1d max3d = 56540 30 113490
                  kxmax kymax kzmax  = 30 30 30
Per MPI rank memory allocation (min/avg/max) = 66.20 | 66.20 | 66.21 Mbytes
Step Time Temp 
    5084            0          298 
    5200           58    158.46813 
    5400          158    178.30202 
    5600          258    208.05869 
    5800          358    225.39025 
    6000          458    259.19379 
    6200          558    281.08751 
    6400          658    299.07415 
    6600          758     304.6478 
    6800          858    310.88165 
    7000          958    301.34998 
    7084         1000    298.52843 
Loop time of 305.109 on 16 procs for 2000 steps with 3000 atoms

Performance: 0.283 ns/day, 84.753 hours/ns, 6.555 timesteps/s
75.2% CPU use with 16 MPI tasks x 1 OpenMP threads

MPI task timing breakdown:
Section |  min time  |  avg time  |  max time  |%varavg| %total
---------------------------------------------------------------
Pair    | 0.085702   | 0.17914    | 0.32916    |  15.0 |  0.06
Bond    | 0.010758   | 0.016951   | 0.022935   |   2.7 |  0.01
Kspace  | 128.33     | 200.14     | 303.58     | 402.3 | 65.59
Neigh   | 0.013146   | 0.020523   | 0.024634   |   3.1 |  0.01
Comm    | 0.4895     | 101.99     | 170.34     | 570.2 | 33.43
Output  | 0.022863   | 0.023041   | 0.023446   |   0.1 |  0.01
Modify  | 0.12738    | 2.7225     | 9.926      | 250.3 |  0.89
Other   |            | 0.02531    |            |       |  0.01

Nlocal:        187.500 ave         262 max         126 min
Histogram: 2 1 2 2 1 3 2 2 0 1
Nghost:        555.938 ave         713 max         383 min
Histogram: 1 0 1 3 3 2 2 3 0 1
Neighs:        4173.69 ave        8115 max        2487 min
Histogram: 3 5 1 4 0 1 1 0 0 1

Total # of neighbors = 66779
Ave neighs/atom = 22.259667
Ave special neighs/atom = 2.0000000
Neighbor list builds = 40
Dangerous builds = 0

Total wall time: 0:28:19
